proyfinal/src/viki/013/andrea/andrea-localstore/experimentInOfficeAgust.take6/worker_9/25665025-0929-479e-a1f6-2c12841a38c6.als.cnf.out
Reading from standard input... Use '--help' for help.
============================[ Problem Statistics ]=============================
|                                                                             |
|  Number of variables:         87638                                         |
|  Number of clauses:          161767                                         |
|  Parse time:                   0.03 s                                       |
|                                                                             |
============================[ Search Statistics ]==============================
| Conflicts |          ORIGINAL         |          LEARNT          | Progress |
|           |    Vars  Clauses Literals |    Limit  Clauses Lit/Cl |          |
===============================================================================
|       100 |   65313   115792   288817 |    42457      100     12 | 25.474 % |
|       250 |   65191   115676   288552 |    46702      245     48 | 25.613 % |
|       475 |   65191   115284   287654 |    51373      470     51 | 25.613 % |
|       812 |   59077    95908   239733 |    56510      803     79 | 32.590 % |
|      1318 |   58968    95543   238813 |    62161     1306     70 | 32.714 % |
|      2077 |   58854    95095   237789 |    68377     2056     60 | 32.844 % |
|      3216 |   58854    95095   237789 |    75215     3195     74 | 32.844 % |
|      4924 |   58634    94582   236597 |    82736     4887     86 | 33.095 % |
|      7486 |   58405    93477   233990 |    91010     7264     84 | 33.357 % |
|     11330 |   58226    92669   232080 |   100111    11008     85 | 33.561 % |
|     17096 |   57616    90247   226224 |   110122    16457     87 | 34.257 % |
===============================================================================
restarts              : 69
conflicts             : 19926          (6891 /sec)
decisions             : 94768          (0.00 % random) (32775 /sec)
propagations          : 29433812       (10179522 /sec)
conflict literals     : 1652895        (43.37 % deleted)
Memory used           : 35.80 MB
CPU time              : 2.89147 s

INDETERMINATE
